Version identifier: 20.1.0.0 | 2020-11-10 | 9bedb6d68
CPXPARAM_Threads                                 1
CPXPARAM_TimeLimit                               7200
CPXPARAM_MIP_Tolerances_MIPGap                   0
Generic callback                                 0x60
1 of 1 MIP starts provided solutions.
MIP start 'm1' defined initial solution with objective 1116.0952.
Tried aggregator 1 time.
Reduced MIP has 800801 rows, 801001 columns, and 2401000 nonzeros.
Reduced MIP has 1000 binaries, 0 generals, 0 SOSs, and 0 indicators.
Presolve time = 0.81 sec. (759.66 ticks)
Probing time = 0.10 sec. (100.05 ticks)
Tried aggregator 1 time.
Reduced MIP has 800801 rows, 801001 columns, and 2401000 nonzeros.
Reduced MIP has 1000 binaries, 0 generals, 0 SOSs, and 0 indicators.
Presolve time = 0.82 sec. (746.68 ticks)
Probing time = 0.11 sec. (100.05 ticks)
MIP emphasis: balance optimality and feasibility.
MIP search method: dynamic search.
Parallel mode: none, using 1 thread.
Root relaxation solution time = 0.27 sec. (308.31 ticks)

        Nodes                                         Cuts/
   Node  Left     Objective  IInf  Best Integer    Best Bound    ItCnt     Gap

*     0+    0                         1116.0952     4368.0000           291.36%
      0     0     1148.6494     4     1116.0952     4368.0000        0  291.36%
      0     2     1148.6494     4     1116.0952     1148.6493        0    2.92%
Elapsed time = 5115.90 sec. (4087860.75 ticks, tree = 0.01 MB, solutions = 1)
      1     3     1119.2656     2     1116.0952     1148.6484    16524    2.92%

User cuts applied:  3

Root node processing (before b&c):
  Real time             = 5115.71 sec. (4087681.71 ticks)
Sequential b&c:
  Real time             = 2084.60 sec. (1229893.77 ticks)
                          ------------
Total (root+branch&cut) = 7200.30 sec. (5317575.49 ticks)
@Parameters: 
is_S_cut                                true
is_add_all_yinF                         true
is_start_value                          true
is_usercut                              true
is_visualization                        false
uc_only_rootnode                        false

data                                    Qi
fn                                      data/Qi/instance_800_1000.csv
mode                                    ZLP
solver                                  cplex

p                                       2
r                                       10

EPS                                     1.0e-06
EPS_vio                                 1.0e-04
beta                                    0.10
gap                                     0.00
nodelimit                               Inf
timelimit                               7200.00


@PrintInfos
ItCnt: 32061
Current gap: 2.92 %
Termination Status: TIME_LIMIT
Primal Status: FEASIBLE_POINT
Solve Time: 7200.31 sec
Objective Value: 1116.095207
Number of Nodes:      2

CutInfo: [phase] num / time (sec) 
ZLP             [phase1]     0 / 0.00 [rLC]     4 / 19.70 [rUC]     2 / 6.60 [sLC]     1 / 2.29 [sUC]     0 / 0.00 
OldSubmodular   [phase1]     0 / 0.00 [rLC]     0 / 0.00 [rUC]     0 / 0.00 [sLC]     0 / 0.00 [sUC]     0 / 0.00 
NewSubmodular   [phase1]     0 / 0.00 [rLC]     0 / 0.00 [rUC]     0 / 0.00 [sLC]     0 / 0.00 [sUC]     0 / 0.00 
PMP             [phase1]     0 / 0.00 [rLC]     5 / 14.44 [rUC]     2 / 4.28 [sLC]     1 / 1.50 [sUC]     0 / 0.00 
Separation Round: [phase1] 0  [rLC] 5  [rUC] 2  [sLC] 1  [sUC] 0
Root Best Bound 1148.649342
Root Best Integer: 1116.095207
Best Bound: 1148.649342
Best Integer: 1116.095207

